p cnf 196 1
196 0
w 1 0.793464
w 2 1 1
w 2 -1 0
w 3 2 1
w 3 -2 0
w 4 3 0.919575
w 4 -3 0.0890428
w 5 4 0
w 5 -4 1
w 6 5 0
w 6 -5 1
w 7 6 0
w 7 -6 1
w 8 7 0.607013
w 8 -7 0.571738
w 9 8 1
w 9 -8 0
w 10 9 0.983627
w 10 -9 0.774203
w 11 10 0
w 11 -10 1
w 12 11 0.689222
w 12 -11 0.952564
w 13 12 1
w 13 -12 0
w 14 13 0
w 14 -13 1
w 15 1 0.670257
w 15 -1 0.509861
w 16 15 2 0.58966
w 16 15 -2 0.0841708
w 16 -15 2 0.66738
w 16 -15 -2 0.678703
w 17 16 3 0.775983
w 17 16 -3 0.176685
w 17 -16 3 0.469027
w 17 -16 -3 0.213121
w 18 17 4 0
w 18 17 -4 0
w 18 -17 4 0
w 18 -17 -4 1
w 19 18 5 0.77796
w 19 18 -5 0.432738
w 19 -18 5 0.71361
w 19 -18 -5 0.0469881
w 20 19 6 1
w 20 19 -6 1
w 20 -19 6 1
w 20 -19 -6 0
w 21 20 7 1
w 21 20 -7 0
w 21 -20 7 1
w 21 -20 -7 0
w 22 21 8 1
w 22 21 -8 1
w 22 -21 8 0
w 22 -21 -8 1
w 23 22 9 0.123441
w 23 22 -9 0.240898
w 23 -22 9 0.826345
w 23 -22 -9 0.592468
w 24 23 10 0
w 24 23 -10 1
w 24 -23 10 1
w 24 -23 -10 0
w 25 24 11 1
w 25 24 -11 1
w 25 -24 11 0
w 25 -24 -11 0
w 26 25 12 1
w 26 25 -12 1
w 26 -25 12 0
w 26 -25 -12 0
w 27 26 13 0.293199
w 27 26 -13 0.432139
w 27 -26 13 0.916277
w 27 -26 -13 0.342929
w 28 27 14 0.380906
w 28 27 -14 0.140463
w 28 -27 14 0.784395
w 28 -27 -14 0.929705
w 29 15 0.434055
w 29 -15 0.0531457
w 30 29 16 0.260401
w 30 29 -16 0.645614
w 30 -29 16 0.300295
w 30 -29 -16 0.505606
w 31 30 17 0.574448
w 31 30 -17 0.741409
w 31 -30 17 0.0784002
w 31 -30 -17 0.788008
w 32 31 18 0.952087
w 32 31 -18 0.715177
w 32 -31 18 0.815922
w 32 -31 -18 0.273198
w 33 32 19 0.612884
w 33 32 -19 0.994296
w 33 -32 19 0.940694
w 33 -32 -19 0.906083
w 34 33 20 0
w 34 33 -20 1
w 34 -33 20 1
w 34 -33 -20 0
w 35 34 21 0
w 35 34 -21 1
w 35 -34 21 1
w 35 -34 -21 1
w 36 35 22 0
w 36 35 -22 0
w 36 -35 22 0
w 36 -35 -22 1
w 37 36 23 1
w 37 36 -23 1
w 37 -36 23 1
w 37 -36 -23 0
w 38 37 24 0.720909
w 38 37 -24 0.534279
w 38 -37 24 0.219056
w 38 -37 -24 0.536831
w 39 38 25 0.19824
w 39 38 -25 0.149714
w 39 -38 25 0.801773
w 39 -38 -25 0.138934
w 40 39 26 1
w 40 39 -26 1
w 40 -39 26 1
w 40 -39 -26 0
w 41 40 27 0
w 41 40 -27 0
w 41 -40 27 0
w 41 -40 -27 1
w 42 41 28 0.62209
w 42 41 -28 0.530266
w 42 -41 28 0.669394
w 42 -41 -28 0.48843
w 43 29 0.893723
w 43 -29 0.992223
w 44 43 30 1
w 44 43 -30 1
w 44 -43 30 1
w 44 -43 -30 0
w 45 44 31 1
w 45 44 -31 1
w 45 -44 31 0
w 45 -44 -31 1
w 46 45 32 0.447669
w 46 45 -32 0.322712
w 46 -45 32 0.946154
w 46 -45 -32 0.443574
w 47 46 33 0.414235
w 47 46 -33 0.677355
w 47 -46 33 0.321805
w 47 -46 -33 0.906583
w 48 47 34 1
w 48 47 -34 1
w 48 -47 34 0
w 48 -47 -34 1
w 49 48 35 0.189238
w 49 48 -35 0.212896
w 49 -48 35 0.420372
w 49 -48 -35 0.181461
w 50 49 36 0.279833
w 50 49 -36 0.755876
w 50 -49 36 0.491897
w 50 -49 -36 0.860203
w 51 50 37 0.602393
w 51 50 -37 0.977403
w 51 -50 37 0.780742
w 51 -50 -37 0.911128
w 52 51 38 1
w 52 51 -38 1
w 52 -51 38 1
w 52 -51 -38 0
w 53 52 39 0.194551
w 53 52 -39 0.859075
w 53 -52 39 0.479727
w 53 -52 -39 0.516355
w 54 53 40 0.558445
w 54 53 -40 0.527297
w 54 -53 40 0.622912
w 54 -53 -40 0.259253
w 55 54 41 1
w 55 54 -41 0
w 55 -54 41 0
w 55 -54 -41 1
w 56 55 42 0.881858
w 56 55 -42 0.849767
w 56 -55 42 0.385828
w 56 -55 -42 0.373754
w 57 43 0.250398
w 57 -43 0.976147
w 58 57 44 0.0311395
w 58 57 -44 0.887275
w 58 -57 44 0.931691
w 58 -57 -44 0.529826
w 59 58 45 1
w 59 58 -45 1
w 59 -58 45 0
w 59 -58 -45 1
w 60 59 46 0.209626
w 60 59 -46 0.599398
w 60 -59 46 0.0866166
w 60 -59 -46 0.736923
w 61 60 47 0
w 61 60 -47 0
w 61 -60 47 1
w 61 -60 -47 0
w 62 61 48 0
w 62 61 -48 1
w 62 -61 48 0
w 62 -61 -48 0
w 63 62 49 1
w 63 62 -49 1
w 63 -62 49 0
w 63 -62 -49 0
w 64 63 50 0
w 64 63 -50 0
w 64 -63 50 1
w 64 -63 -50 0
w 65 64 51 0.59617
w 65 64 -51 0.500379
w 65 -64 51 0.312597
w 65 -64 -51 0.42991
w 66 65 52 1
w 66 65 -52 0
w 66 -65 52 1
w 66 -65 -52 1
w 67 66 53 0
w 67 66 -53 1
w 67 -66 53 1
w 67 -66 -53 1
w 68 67 54 0.67971
w 68 67 -54 0.120087
w 68 -67 54 0.356869
w 68 -67 -54 0.489852
w 69 68 55 0
w 69 68 -55 0
w 69 -68 55 1
w 69 -68 -55 0
w 70 69 56 0.986975
w 70 69 -56 0.167934
w 70 -69 56 0.263574
w 70 -69 -56 0.438909
w 71 57 0.859744
w 71 -57 0.939288
w 72 71 58 1
w 72 71 -58 0
w 72 -71 58 1
w 72 -71 -58 1
w 73 72 59 0
w 73 72 -59 1
w 73 -72 59 0
w 73 -72 -59 1
w 74 73 60 1
w 74 73 -60 0
w 74 -73 60 1
w 74 -73 -60 0
w 75 74 61 1
w 75 74 -61 1
w 75 -74 61 0
w 75 -74 -61 1
w 76 75 62 0.460931
w 76 75 -62 0.0219769
w 76 -75 62 0.161461
w 76 -75 -62 0.447905
w 77 76 63 1
w 77 76 -63 0
w 77 -76 63 0
w 77 -76 -63 0
w 78 77 64 0.0770304
w 78 77 -64 0.574432
w 78 -77 64 0.79394
w 78 -77 -64 0.699112
w 79 78 65 0.876945
w 79 78 -65 0.580341
w 79 -78 65 0.463974
w 79 -78 -65 0.420987
w 80 79 66 0.658046
w 80 79 -66 0.220426
w 80 -79 66 0.623347
w 80 -79 -66 0.417413
w 81 80 67 0.840638
w 81 80 -67 0.53365
w 81 -80 67 0.668576
w 81 -80 -67 0.520456
w 82 81 68 0.187967
w 82 81 -68 0.981387
w 82 -81 68 0.530276
w 82 -81 -68 0.349428
w 83 82 69 1
w 83 82 -69 0
w 83 -82 69 0
w 83 -82 -69 0
w 84 83 70 1
w 84 83 -70 0
w 84 -83 70 1
w 84 -83 -70 0
w 85 71 0.813093
w 85 -71 0.0538423
w 86 85 72 0.23408
w 86 85 -72 0.579985
w 86 -85 72 0.649086
w 86 -85 -72 0.454505
w 87 86 73 1
w 87 86 -73 0
w 87 -86 73 1
w 87 -86 -73 1
w 88 87 74 0.564426
w 88 87 -74 0.108448
w 88 -87 74 0.0106233
w 88 -87 -74 0.545813
w 89 88 75 0.360051
w 89 88 -75 0.975105
w 89 -88 75 0.35891
w 89 -88 -75 0.134514
w 90 89 76 1
w 90 89 -76 0
w 90 -89 76 0
w 90 -89 -76 0
w 91 90 77 0
w 91 90 -77 1
w 91 -90 77 0
w 91 -90 -77 0
w 92 91 78 1
w 92 91 -78 1
w 92 -91 78 1
w 92 -91 -78 0
w 93 92 79 1
w 93 92 -79 1
w 93 -92 79 1
w 93 -92 -79 0
w 94 93 80 0.749716
w 94 93 -80 0.769715
w 94 -93 80 0.858604
w 94 -93 -80 0.295529
w 95 94 81 0
w 95 94 -81 0
w 95 -94 81 0
w 95 -94 -81 1
w 96 95 82 0.823617
w 96 95 -82 0.546923
w 96 -95 82 0.995263
w 96 -95 -82 0.654275
w 97 96 83 1
w 97 96 -83 1
w 97 -96 83 0
w 97 -96 -83 1
w 98 97 84 1
w 98 97 -84 0
w 98 -97 84 0
w 98 -97 -84 0
w 99 85 0.395743
w 99 -85 0.130114
w 100 99 86 0.581033
w 100 99 -86 0.791382
w 100 -99 86 0.708778
w 100 -99 -86 0.330749
w 101 100 87 0.567381
w 101 100 -87 0.626279
w 101 -100 87 0.969536
w 101 -100 -87 0.786037
w 102 101 88 0.736884
w 102 101 -88 0.139205
w 102 -101 88 0.458758
w 102 -101 -88 0.560501
w 103 102 89 0.454021
w 103 102 -89 0.214776
w 103 -102 89 0.0604774
w 103 -102 -89 0.81885
w 104 103 90 1
w 104 103 -90 1
w 104 -103 90 0
w 104 -103 -90 0
w 105 104 91 1
w 105 104 -91 0
w 105 -104 91 0
w 105 -104 -91 1
w 106 105 92 1
w 106 105 -92 0
w 106 -105 92 0
w 106 -105 -92 0
w 107 106 93 1
w 107 106 -93 0
w 107 -106 93 0
w 107 -106 -93 1
w 108 107 94 0
w 108 107 -94 1
w 108 -107 94 0
w 108 -107 -94 1
w 109 108 95 0.914366
w 109 108 -95 0.487565
w 109 -108 95 0.896979
w 109 -108 -95 0.974843
w 110 109 96 1
w 110 109 -96 0
w 110 -109 96 0
w 110 -109 -96 1
w 111 110 97 0.00332222
w 111 110 -97 0.303905
w 111 -110 97 0.560548
w 111 -110 -97 0.169362
w 112 111 98 1
w 112 111 -98 1
w 112 -111 98 0
w 112 -111 -98 1
w 113 99 0
w 113 -99 1
w 114 113 100 1
w 114 113 -100 1
w 114 -113 100 0
w 114 -113 -100 1
w 115 114 101 0.502363
w 115 114 -101 0.0815451
w 115 -114 101 0.466444
w 115 -114 -101 0.989928
w 116 115 102 0.441287
w 116 115 -102 0.296344
w 116 -115 102 0.0487133
w 116 -115 -102 0.205449
w 117 116 103 0.608549
w 117 116 -103 0.833307
w 117 -116 103 0.972421
w 117 -116 -103 0.912454
w 118 117 104 0
w 118 117 -104 1
w 118 -117 104 0
w 118 -117 -104 0
w 119 118 105 0.494744
w 119 118 -105 0.269794
w 119 -118 105 0.736894
w 119 -118 -105 0.387564
w 120 119 106 0.630926
w 120 119 -106 0.665204
w 120 -119 106 0.828442
w 120 -119 -106 0.0997453
w 121 120 107 0
w 121 120 -107 1
w 121 -120 107 0
w 121 -120 -107 0
w 122 121 108 0
w 122 121 -108 1
w 122 -121 108 0
w 122 -121 -108 0
w 123 122 109 0.781877
w 123 122 -109 0.327007
w 123 -122 109 0.8299
w 123 -122 -109 0.694331
w 124 123 110 0.971683
w 124 123 -110 0.0505035
w 124 -123 110 0.738067
w 124 -123 -110 0.309664
w 125 124 111 0.232811
w 125 124 -111 0.579457
w 125 -124 111 0.308133
w 125 -124 -111 0.620375
w 126 125 112 1
w 126 125 -112 1
w 126 -125 112 0
w 126 -125 -112 1
w 127 113 1
w 127 -113 0
w 128 127 114 0.496216
w 128 127 -114 0.139986
w 128 -127 114 0.23295
w 128 -127 -114 0.620831
w 129 128 115 1
w 129 128 -115 1
w 129 -128 115 1
w 129 -128 -115 0
w 130 129 116 0.248944
w 130 129 -116 0.808709
w 130 -129 116 0.270368
w 130 -129 -116 0.969805
w 131 130 117 0.320871
w 131 130 -117 0.707872
w 131 -130 117 0.0900552
w 131 -130 -117 0.89211
w 132 131 118 0.669513
w 132 131 -118 0.200243
w 132 -131 118 0.561058
w 132 -131 -118 0.753572
w 133 132 119 0
w 133 132 -119 1
w 133 -132 119 0
w 133 -132 -119 1
w 134 133 120 0.819021
w 134 133 -120 0.692977
w 134 -133 120 0.0990823
w 134 -133 -120 0.0519707
w 135 134 121 1
w 135 134 -121 0
w 135 -134 121 0
w 135 -134 -121 1
w 136 135 122 1
w 136 135 -122 0
w 136 -135 122 1
w 136 -135 -122 1
w 137 136 123 0.275242
w 137 136 -123 0.375878
w 137 -136 123 0.831266
w 137 -136 -123 0.167352
w 138 137 124 0
w 138 137 -124 1
w 138 -137 124 0
w 138 -137 -124 1
w 139 138 125 0.724255
w 139 138 -125 0.920425
w 139 -138 125 0.685005
w 139 -138 -125 0.921017
w 140 139 126 0.504026
w 140 139 -126 0.613994
w 140 -139 126 0.978603
w 140 -139 -126 0.555997
w 141 127 0.505922
w 141 -127 0.729298
w 142 141 128 1
w 142 141 -128 0
w 142 -141 128 1
w 142 -141 -128 0
w 143 142 129 0.674142
w 143 142 -129 0.321385
w 143 -142 129 0.583437
w 143 -142 -129 0.949383
w 144 143 130 0.414703
w 144 143 -130 0.116735
w 144 -143 130 0.013824
w 144 -143 -130 0.915482
w 145 144 131 1
w 145 144 -131 1
w 145 -144 131 1
w 145 -144 -131 0
w 146 145 132 0
w 146 145 -132 0
w 146 -145 132 0
w 146 -145 -132 1
w 147 146 133 1
w 147 146 -133 0
w 147 -146 133 1
w 147 -146 -133 0
w 148 147 134 1
w 148 147 -134 1
w 148 -147 134 1
w 148 -147 -134 0
w 149 148 135 0
w 149 148 -135 0
w 149 -148 135 1
w 149 -148 -135 0
w 150 149 136 0
w 150 149 -136 0
w 150 -149 136 0
w 150 -149 -136 1
w 151 150 137 0
w 151 150 -137 1
w 151 -150 137 1
w 151 -150 -137 1
w 152 151 138 0.3629
w 152 151 -138 0.726102
w 152 -151 138 0.139189
w 152 -151 -138 0.332678
w 153 152 139 0.289898
w 153 152 -139 0.281058
w 153 -152 139 0.642618
w 153 -152 -139 0.368409
w 154 153 140 0.108172
w 154 153 -140 0.482688
w 154 -153 140 0.144842
w 154 -153 -140 0.455134
w 155 141 0
w 155 -141 1
w 156 155 142 0.82493
w 156 155 -142 0.591948
w 156 -155 142 0.416949
w 156 -155 -142 0.282506
w 157 156 143 0.604278
w 157 156 -143 0.856817
w 157 -156 143 0.76879
w 157 -156 -143 0.70709
w 158 157 144 0.755566
w 158 157 -144 0.979733
w 158 -157 144 0.965327
w 158 -157 -144 0.35804
w 159 158 145 0
w 159 158 -145 1
w 159 -158 145 1
w 159 -158 -145 1
w 160 159 146 0.95637
w 160 159 -146 0.240407
w 160 -159 146 0.155535
w 160 -159 -146 0.69173
w 161 160 147 1
w 161 160 -147 1
w 161 -160 147 0
w 161 -160 -147 1
w 162 161 148 1
w 162 161 -148 0
w 162 -161 148 1
w 162 -161 -148 1
w 163 162 149 1
w 163 162 -149 1
w 163 -162 149 0
w 163 -162 -149 0
w 164 163 150 0.834036
w 164 163 -150 0.156086
w 164 -163 150 0.799999
w 164 -163 -150 0.192075
w 165 164 151 1
w 165 164 -151 0
w 165 -164 151 1
w 165 -164 -151 0
w 166 165 152 1
w 166 165 -152 1
w 166 -165 152 1
w 166 -165 -152 0
w 167 166 153 0.270188
w 167 166 -153 0.658703
w 167 -166 153 0.481916
w 167 -166 -153 0.225149
w 168 167 154 0.929951
w 168 167 -154 0.00504016
w 168 -167 154 0.3392
w 168 -167 -154 0.794935
w 169 155 0
w 169 -155 1
w 170 169 156 0
w 170 169 -156 1
w 170 -169 156 1
w 170 -169 -156 1
w 171 170 157 0.596635
w 171 170 -157 0.621323
w 171 -170 157 0.753461
w 171 -170 -157 0.0953545
w 172 171 158 0
w 172 171 -158 0
w 172 -171 158 1
w 172 -171 -158 0
w 173 172 159 1
w 173 172 -159 0
w 173 -172 159 0
w 173 -172 -159 0
w 174 173 160 0.69171
w 174 173 -160 0.0464985
w 174 -173 160 0.5836
w 174 -173 -160 0.621661
w 175 174 161 0
w 175 174 -161 0
w 175 -174 161 1
w 175 -174 -161 0
w 176 175 162 0.105628
w 176 175 -162 0.29903
w 176 -175 162 0.121342
w 176 -175 -162 0.926952
w 177 176 163 0.717977
w 177 176 -163 0.548274
w 177 -176 163 0.613877
w 177 -176 -163 0.813332
w 178 177 164 0.0566422
w 178 177 -164 0.0827177
w 178 -177 164 0.862991
w 178 -177 -164 0.975838
w 179 178 165 0
w 179 178 -165 1
w 179 -178 165 1
w 179 -178 -165 0
w 180 179 166 0
w 180 179 -166 1
w 180 -179 166 1
w 180 -179 -166 1
w 181 180 167 1
w 181 180 -167 0
w 181 -180 167 0
w 181 -180 -167 0
w 182 181 168 1
w 182 181 -168 1
w 182 -181 168 0
w 182 -181 -168 0
w 183 169 0.854456
w 183 -169 0.146216
w 184 183 170 1
w 184 183 -170 1
w 184 -183 170 0
w 184 -183 -170 1
w 185 184 171 0.468928
w 185 184 -171 0.23301
w 185 -184 171 0.0648142
w 185 -184 -171 0.995927
w 186 185 172 0.669191
w 186 185 -172 0.344275
w 186 -185 172 0.522478
w 186 -185 -172 0.965278
w 187 186 173 0.691122
w 187 186 -173 0.883026
w 187 -186 173 0.185508
w 187 -186 -173 0.782566
w 188 187 174 1
w 188 187 -174 1
w 188 -187 174 0
w 188 -187 -174 1
w 189 188 175 0
w 189 188 -175 1
w 189 -188 175 0
w 189 -188 -175 0
w 190 189 176 1
w 190 189 -176 1
w 190 -189 176 0
w 190 -189 -176 1
w 191 190 177 0.643489
w 191 190 -177 0.62888
w 191 -190 177 0.874746
w 191 -190 -177 0.708303
w 192 191 178 0.812179
w 192 191 -178 0.377494
w 192 -191 178 0.969082
w 192 -191 -178 0.334657
w 193 192 179 1
w 193 192 -179 0
w 193 -192 179 1
w 193 -192 -179 0
w 194 193 180 0.443167
w 194 193 -180 0.644583
w 194 -193 180 0.254034
w 194 -193 -180 0.675673
w 195 194 181 0
w 195 194 -181 0
w 195 -194 181 1
w 195 -194 -181 0
w 196 195 182 0
w 196 195 -182 0
w 196 -195 182 0
w 196 -195 -182 1